objective value:                                  -82
t_x5                                                1 	(obj:-100)
t_y5_204                                            1 	(obj:1)
t_y5_53                                             1 	(obj:1)
t_y5_177                                            1 	(obj:1)
t_y5_135                                            1 	(obj:1)
t_y5_117                                            1 	(obj:1)
t_y5_162                                            1 	(obj:1)
t_y5_25                                             1 	(obj:1)
t_y5_280                                            1 	(obj:1)
t_y5_170                                            1 	(obj:1)
t_y5_59                                             1 	(obj:1)
t_y5_198                                            1 	(obj:1)
t_y5_206                                            1 	(obj:1)
t_y5_175                                            1 	(obj:1)
t_y5_74                                             1 	(obj:1)
t_y5_320                                            1 	(obj:1)
t_y5_329                                            1 	(obj:1)
t_y2_5                                              1 	(obj:1)
t_y5_309                                            1 	(obj:1)
